TOUR_SECTION
1
112
175
49
103
140
122
53
142
97
169
156
191
54
32
197
162
89
64
135
24
75
77
107
199
164
166
10
17
58
35
143
151
145
19
179
12
37
43
144
187
28
16
198
9
100
188
110
11
25
182
153
176
47
4
63
193
84
78
95
51
155
190
133
196
13
146
161
138
33
46
91
116
180
61
73
123
154
6
108
158
167
101
38
127
159
171
36
163
113
132
189
184
195
92
118
115
160
152
87
121
44
148
82
3
45
21
62
99
96
139
126
117
71
80
40
174
66
7
131
183
178
185
72
136
29
20
81
192
111
129
114
70
52
15
69
141
137
130
86
201
173
105
27
120
134
8
59
39
88
150
119
30
14
76
93
2
94
157
57
22
102
41
23
104
90
109
55
85
149
68
18
56
34
168
172
26
186
147
98
42
74
31
177
67
106
128
79
194
124
48
181
65
50
60
200
170
5
125
165
83
-1
EOF